8 8
4
3 3 0 0
3 5 0 3
5 3 3 0
5 5 3 3
% time elapsed: 0.10 s
% time elapsed: 0.10 s
%%%mzn-stat: initTime=0.000252
%%%mzn-stat: solveTime=0.000211
%%%mzn-stat: solutions=8
%%%mzn-stat: variables=9
%%%mzn-stat: propagators=9
%%%mzn-stat: propagations=370
%%%mzn-stat: nodes=57
%%%mzn-stat: failures=21
%%%mzn-stat: restarts=0
%%%mzn-stat: peakDepth=10
%%%mzn-stat-end
